Using license file /util/academic/gurobi/licenses/gurobi.lic
Set parameter TokenServer to value srv-m14-36.cbls.ccr.buffalo.edu
Set parameter TSPort to value 46325
Changed value of parameter lazyConstraints to 1
   Prev: 0  Min: 0  Max: 1  Default: 0
Changed value of parameter TimeLimit to 129600.0
   Prev: inf  Min: 0.0  Max: inf  Default: inf
Gurobi Optimizer version 9.1.1 build v9.1.1rc0 (linux64)
Thread count: 12 physical cores, 12 logical processors, using up to 12 threads
Optimize a model with 6106 rows, 7765 columns and 28630 nonzeros
Model fingerprint: 0x005f31ff
Variable types: 2125 continuous, 5640 integer (5640 binary)
Coefficient statistics:
  Matrix range     [1e+00, 9e+03]
  Objective range  [1e+00, 1e+00]
  Bounds range     [1e+00, 6e+03]
  RHS range        [1e+00, 9e+03]
Presolve removed 731 rows and 209 columns
Presolve time: 0.08s
Presolved: 5375 rows, 7556 columns, 27396 nonzeros
Variable types: 1674 continuous, 5882 integer (5882 binary)

Root relaxation: objective -3.335563e+05, 4090 iterations, 0.14 seconds

    Nodes    |    Current Node    |     Objective Bounds      |     Work
 Expl Unexpl |  Obj  Depth IntInf | Incumbent    BestBd   Gap | It/Node Time

     0     0 -333556.25    0 1158          - -333556.25      -     -    0s
     0     0 -332955.23    0  465          - -332955.23      -     -    1s
H    0     0                    -317855.9275 -332955.23  4.75%     -    1s
     0     0 -332954.35    0  465 -317855.93 -332954.35  4.75%     -    1s
     0     0 -332851.69    0  324 -317855.93 -332851.69  4.72%     -    1s
H    0     0                    -327253.9675 -332851.69  1.71%     -    1s
     0     0 -332828.88    0  487 -327253.97 -332828.88  1.70%     -    1s
     0     0 -332827.22    0  486 -327253.97 -332827.22  1.70%     -    1s
     0     0 -332779.65    0  425 -327253.97 -332779.65  1.69%     -    2s
     0     0 -332778.35    0  417 -327253.97 -332778.35  1.69%     -    2s
     0     0 -332748.86    0  527 -327253.97 -332748.86  1.68%     -    2s
     0     0 -332739.95    0  631 -327253.97 -332739.95  1.68%     -    2s
     0     0 -332735.65    0  620 -327253.97 -332735.65  1.68%     -    2s
     0     0 -332735.65    0  620 -327253.97 -332735.65  1.68%     -    2s
     0     0 -332735.65    0  620 -327253.97 -332735.65  1.68%     -    2s
     0     0 -332735.65    0  429 -327253.97 -332735.65  1.68%     -    2s
     0     0 -332735.65    0  429 -327253.97 -332735.65  1.68%     -    3s
     0     0 -332735.65    0  429 -327253.97 -332735.65  1.68%     -    3s
     0     2 -332722.25    0  429 -327253.97 -332722.25  1.67%     -    4s
     1     4 -332722.25    1  551 -327253.97 -332722.25  1.67%  1145    5s
    35    38 -329675.49    6  450 -327253.97 -330219.80  0.91%   945   10s
H   72    78                    -327352.4475 -330219.80  0.88%   789   11s
H   89    90                    -329018.5475 -330219.80  0.37%   721   12s
H  118    88                    -329042.1375 -330219.80  0.36%   632   12s
   368   293 -329249.81   23  251 -329042.14 -330108.83  0.32%   393   15s
  1516   950     cutoff   89      -329042.14 -330058.09  0.31%   234   20s
  1899  1175 -329133.97   25  314 -329042.14 -330058.09  0.31%   225   25s
  1903  1181 -330058.09   24  536 -329042.14 -330058.09  0.31%   230   36s
  1909  1187     cutoff   26      -329042.14 -330058.09  0.31%   232   40s
  2136  1195     cutoff   31      -329042.14 -330058.09  0.31%   246   45s
  2369  1128     cutoff   32      -329042.14 -329719.07  0.21%   255   50s
  5149   783     cutoff   58      -329042.14 -329093.61  0.02%   191   55s

Explored 8060 nodes (1430715 simplex iterations) in 59.26 seconds
Thread count was 12 (of 12 available processors)

Solution count 5: -329042 -329019 -327352 ... -317856

Optimal solution found (tolerance 1.00e-04)
Best objective -3.290421374594e+05, best bound -3.290514674594e+05, gap 0.0028%

User-callback calls 26636, time in user-callback 0.18 sec
-1
Leader's objective: 329042
Customers decisions:
Customer 1 - Obj: 410.528   part1: 421.105   part2: 10.5766
1, 8: 0 8565.34 8526.93
41, 8, 0: 0 8565.34 15.475 6389.57 8526.93
42, 8, 0: 0 8565.34 20.3892 6389.57 8526.93
43, 8, 0: 0 8565.34 24.0595 6389.57 8526.93
44, 8, 0: 1 8565.34 10.5766 8526.93 8526.93
1, 6: 0 2562.49 2179.8
41, 6, 1: 0 2562.49 15.475 1727.66 2179.8
42, 6, 1: 0 2562.49 20.3892 1727.66 2179.8
43, 6, 1: 0 2562.49 24.0595 1727.66 2179.8
44, 6, 1: 1 2562.49 10.5766 2179.8 2179.8
Customer 2 - Obj: 67.5551   part1: 146.865   part2: 79.3104
2, 8: 0 8604.26 8526.93
41, 8, 2: 0 8604.26 116.834 6389.57 8526.93
42, 8, 2: 0 8604.26 154.477 6389.57 8526.93
43, 8, 2: 0 8604.26 182.592 6389.57 8526.93
44, 8, 2: 1 8604.26 79.3104 8526.93 8526.93
2, 5: 0 6734.85 6665.31
41, 5, 3: 0 6734.85 116.834 6249.21 6665.31
42, 5, 3: 0 6734.85 154.477 6249.21 6665.31
43, 5, 3: 0 6734.85 182.592 6249.21 6665.31
44, 5, 3: 1 6734.85 79.3104 6665.31 6665.31
Customer 3 - Obj: 274.261   part1: 279.736   part2: 5.47526
3, 2: 0 3141.71 3140.11
41, 2, 4: 0 3141.71 10.269 2815.86 3140.11
42, 2, 4: 0 3141.71 12.1801 2815.86 3140.11
43, 2, 4: 0 3141.71 18.3562 2815.86 3140.11
44, 2, 4: 1 3141.71 5.47526 3140.11 3140.11
3, 0: 0 6255.37 6180.34
41, 0, 5: 0 6255.37 10.269 4753.11 6180.34
42, 0, 5: 0 6255.37 12.1801 4753.11 6180.34
43, 0, 5: 0 6255.37 18.3562 4753.11 6180.34
44, 0, 5: 1 6255.37 5.47526 6180.34 6180.34
3, 6: 0 2382.9 2179.8
41, 6, 6: 0 2382.9 10.269 1727.66 2179.8
42, 6, 6: 0 2382.9 12.1801 1727.66 2179.8
43, 6, 6: 0 2382.9 18.3562 1727.66 2179.8
44, 6, 6: 1 2382.9 5.47526 2179.8 2179.8
Customer 4 - Obj: 6.82107   part1: 6.82107   part2: 0
4, 8: 1 8533.75 8526.93
41, 8, 7: 0 8533.75 47.1966 6389.57 8526.93
42, 8, 7: 0 8533.75 42.659 6389.57 8526.93
43, 8, 7: 0 8533.75 99.5899 6389.57 8526.93
44, 8, 7: 0 8533.75 11.8627 6389.57 8526.93
Customer 5 - Obj: 24.0017   part1: 24.0017   part2: 0
5, 9: 1 645.292 621.29
41, 9, 8: 0 645.292 33.9358 503.527 621.29
42, 9, 8: 0 645.292 36.7108 503.527 621.29
43, 9, 8: 0 645.292 78.2629 503.527 621.29
44, 9, 8: 0 645.292 4.25345 503.527 621.29
Customer 6 - Obj: 30.4603   part1: 30.4603   part2: 3.15015e-12
6, 0: 1 6210.8 6180.34
41, 0, 9: 0 6210.8 67.2569 4753.11 6180.34
42, 0, 9: 0 6210.8 55.418 4753.11 6180.34
43, 0, 9: 0 6210.8 131.022 4753.11 6180.34
44, 0, 9: 0 6210.8 14.709 6165.63 6180.34
Customer 7 - Obj: 302.58   part1: 326.008   part2: 23.4286
7, 8: 0 8826.76 8526.93
41, 8, 10: 0 8826.76 106.462 6389.57 8526.93
42, 8, 10: 0 8826.76 191.051 8526.93 8526.93
43, 8, 10: 0 8826.76 0 6389.57 8526.93
44, 8, 10: 1 8826.76 23.4286 8526.93 8526.93
7, 4: 0 3245.41 3219.23
41, 4, 11: 0 3245.41 106.462 2213.19 3219.23
42, 4, 11: 0 3245.41 191.051 2213.19 3219.23
43, 4, 11: 0 3245.41 0 2213.19 3219.23
44, 4, 11: 1 3245.41 23.4286 3219.23 3219.23
Customer 8 - Obj: 260.473   part1: 277.466   part2: 16.9929
8, 7: 1 4785.6 4508.14
41, 7, 12: 0 4785.6 86.4352 3278.16 4508.14
42, 7, 12: 0 4785.6 78.6514 3278.16 4508.14
43, 7, 12: 0 4785.6 170.573 3278.16 4508.14
44, 7, 12: 0 4785.6 16.9929 3278.16 4508.14
Customer 9 - Obj: -167.053   part1: 44.235   part2: 211.288
9, 1: 0 8248.15 8203.92
41, 1, 13: 0 8248.15 178.394 5561.73 8203.92
42, 1, 13: 0 8248.15 93.6251 5561.73 8203.92
43, 1, 13: 0 8248.15 120.406 5561.73 8203.92
44, 1, 13: 1 8248.15 211.288 8203.92 8203.92
Customer 10 - Obj: -5.30706   part1: 22.9223   part2: 28.2294
10, 4: 0 3242.15 3219.23
41, 4, 14: 0 3242.15 17.4694 2213.19 3219.23
42, 4, 14: 0 3242.15 44.1495 2213.19 3219.23
43, 4, 14: 0 3242.15 41.7731 2213.19 3219.23
44, 4, 14: 1 3242.15 28.2294 3219.23 3219.23
Customer 11 - Obj: 218.025   part1: 302.102   part2: 84.0762
11, 8: 0 8829.03 8526.93
41, 8, 15: 0 8829.03 69.5653 6389.57 8526.93
42, 8, 15: 0 8829.03 134.077 6389.57 8526.93
43, 8, 15: 0 8829.03 142.549 6389.57 8526.93
44, 8, 15: 1 8829.03 84.0762 8526.93 8526.93
Customer 12 - Obj: 193.819   part1: 328.347   part2: 134.527
12, 3: 0 1163.19 981.225
41, 3, 16: 0 1163.19 30.4497 770.044 981.225
42, 3, 16: 0 1163.19 83.5032 770.044 981.225
43, 3, 16: 0 1163.19 78.9582 770.044 981.225
44, 3, 16: 1 1163.19 55.5689 981.225 981.225
12, 2: 0 3286.49 3140.11
41, 2, 17: 0 3286.49 30.4497 2815.86 3140.11
42, 2, 17: 0 3286.49 83.5032 2815.86 3140.11
43, 2, 17: 0 3286.49 78.9582 2815.86 3140.11
44, 2, 17: 1 3286.49 55.5689 3140.11 3140.11
Customer 13 - Obj: -106.855   part1: 32.3032   part2: 139.158
13, 7: 0 4540.44 4508.14
41, 7, 18: 0 4540.44 9.07088 3278.16 4508.14
42, 7, 18: 0 4540.44 42.6166 4508.14 4508.14
43, 7, 18: 0 4540.44 50.4173 3278.16 4508.14
44, 7, 18: 1 4540.44 37.0535 4508.14 4508.14
Customer 14 - Obj: 56.8837   part1: 107.71   part2: 50.8264
14, 9: 0 667.549 621.29
41, 9, 19: 0 667.549 9.75444 503.527 621.29
42, 9, 19: 0 667.549 73.3754 503.527 621.29
43, 9, 19: 0 667.549 79.5289 503.527 621.29
44, 9, 19: 1 667.549 50.8264 621.29 621.29
14, 2: 0 3201.56 3140.11
41, 2, 20: 0 3201.56 9.75444 2815.86 3140.11
42, 2, 20: 0 3201.56 73.3754 2815.86 3140.11
43, 2, 20: 0 3201.56 79.5289 2815.86 3140.11
44, 2, 20: 1 3201.56 50.8264 3140.11 3140.11
Customer 15 - Obj: 523.247   part1: 628.309   part2: 105.063
15, 3: 0 1409.7 981.225
41, 3, 21: 0 1409.7 82.4139 770.044 981.225
42, 3, 21: 0 1409.7 124.906 770.044 981.225
43, 3, 21: 0 1409.7 131.781 770.044 981.225
44, 3, 21: 1 1409.7 105.063 981.225 981.225
15, 5: 0 6823.09 6665.31
41, 5, 22: 0 6823.09 82.4139 6249.21 6665.31
42, 5, 22: 0 6823.09 124.906 6249.21 6665.31
43, 5, 22: 0 6823.09 131.781 6249.21 6665.31
44, 5, 22: 1 6823.09 105.063 6665.31 6665.31
15, 4: 0 3261.28 3219.23
41, 4, 23: 0 3261.28 82.4139 2213.19 3219.23
42, 4, 23: 0 3261.28 124.906 2213.19 3219.23
43, 4, 23: 0 3261.28 131.781 2213.19 3219.23
44, 4, 23: 1 3261.28 105.063 3219.23 3219.23
Customer 16 - Obj: 203.847   part1: 234.607   part2: 30.7605
16, 7: 0 4605.76 4508.14
41, 7, 24: 0 4605.76 17.9226 3278.16 4508.14
42, 7, 24: 0 4605.76 40.6878 3278.16 4508.14
43, 7, 24: 0 4605.76 39.162 3278.16 4508.14
44, 7, 24: 1 4605.76 30.7605 4508.14 4508.14
16, 8: 0 8633.92 8526.93
41, 8, 25: 0 8633.92 17.9226 6389.57 8526.93
42, 8, 25: 0 8633.92 40.6878 6389.57 8526.93
43, 8, 25: 0 8633.92 39.162 6389.57 8526.93
44, 8, 25: 1 8633.92 30.7605 8526.93 8526.93
16, 9: 0 651.284 621.29
41, 9, 26: 0 651.284 17.9226 503.527 621.29
42, 9, 26: 0 651.284 40.6878 503.527 621.29
43, 9, 26: 0 651.284 39.162 503.527 621.29
44, 9, 26: 1 651.284 30.7605 621.29 621.29
Customer 17 - Obj: -46.2639   part1: 9.67999   part2: 55.9439
17, 3: 0 990.905 981.225
41, 3, 27: 0 990.905 27.8262 770.044 981.225
42, 3, 27: 0 990.905 0 770.044 981.225
43, 3, 27: 0 990.905 53.1236 770.044 981.225
44, 3, 27: 1 990.905 55.9439 981.225 981.225
Customer 18 - Obj: -7.94164   part1: 115.401   part2: 123.342
18, 9: 0 736.691 621.29
41, 9, 28: 0 736.691 75.7359 503.527 621.29
42, 9, 28: 0 736.691 147.981 503.527 621.29
43, 9, 28: 0 736.691 115.347 503.527 621.29
44, 9, 28: 1 736.691 123.342 621.29 621.29
Customer 19 - Obj: 114.858   part1: 114.858   part2: 0
19, 4: 0 3334.09 3219.23
41, 4, 29: 0 3334.09 142.952 2213.19 3219.23
42, 4, 29: 0 3334.09 110.609 2213.19 3219.23
43, 4, 29: 0 3334.09 101.322 2213.19 3219.23
44, 4, 29: 1 3334.09 0 3219.23 3219.23
Customer 20 - Obj: 89.7947   part1: 89.7947   part2: 0
20, 2: 0 3229.9 3140.11
41, 2, 30: 0 3229.9 13.7077 2815.86 3140.11
42, 2, 30: 0 3229.9 6.08077 2815.86 3140.11
43, 2, 30: 0 3229.9 6.99095 2815.86 3140.11
44, 2, 30: 1 3229.9 0 3140.11 3140.11
Customer 21 - Obj: 130.252   part1: 182.564   part2: 52.3126
21, 8: 0 8542.43 8526.93
41, 8, 31: 0 8542.43 65.1671 6389.57 8526.93
42, 8, 31: 0 8542.43 33.3316 6389.57 8526.93
43, 8, 31: 0 8542.43 30.3881 6389.57 8526.93
44, 8, 31: 1 8542.43 52.3126 8526.93 8526.93
21, 6: 0 2239.2 2179.8
41, 6, 32: 0 2239.2 65.1671 1727.66 2179.8
42, 6, 32: 0 2239.2 33.3316 1727.66 2179.8
43, 6, 32: 0 2239.2 30.3881 1727.66 2179.8
44, 6, 32: 1 2239.2 52.3126 2179.8 2179.8
21, 1: 0 8311.57 8203.92
41, 1, 33: 0 8311.57 65.1671 5561.73 8203.92
42, 1, 33: 0 8311.57 33.3316 5561.73 8203.92
43, 1, 33: 0 8311.57 30.3881 5561.73 8203.92
44, 1, 33: 1 8311.57 52.3126 8203.92 8203.92
Customer 22 - Obj: -654.396   part1: 50.977   part2: 705.373
22, 4: 0 3233.28 3219.23
41, 4, 34: 0 3233.28 367.91 2213.19 3219.23
42, 4, 34: 0 3233.28 251.356 2213.19 3219.23
43, 4, 34: 0 3233.28 262.404 2213.19 3219.23
44, 4, 34: 1 3233.28 454.016 3219.23 3219.23
22, 0: 0 6217.26 6180.34
41, 0, 35: 0 6217.26 367.91 4753.11 6180.34
42, 0, 35: 0 6217.26 251.356 4753.11 6180.34
43, 0, 35: 0 6217.26 262.404 4753.11 6180.34
44, 0, 35: 1 6217.26 454.016 6180.34 6180.34
Customer 23 - Obj: -238.291   part1: 326.587   part2: 564.877
23, 1: 0 8364.31 8203.92
41, 1, 36: 0 8364.31 212.882 5561.73 8203.92
42, 1, 36: 0 8364.31 150.242 5561.73 8203.92
43, 1, 36: 0 8364.31 152.358 5561.73 8203.92
44, 1, 36: 1 8364.31 262.277 8203.92 8203.92
23, 9: 0 672.772 621.29
41, 9, 37: 0 672.772 212.882 503.527 621.29
42, 9, 37: 0 672.772 150.242 621.29 621.29
43, 9, 37: 0 672.772 152.358 503.527 621.29
44, 9, 37: 1 672.772 262.277 621.29 621.29
23, 4: 0 3333.94 3219.23
41, 4, 38: 0 3333.94 212.882 2213.19 3219.23
42, 4, 38: 0 3333.94 150.242 2213.19 3219.23
43, 4, 38: 0 3333.94 152.358 2213.19 3219.23
44, 4, 38: 1 3333.94 262.277 3219.23 3219.23
Customer 24 - Obj: 456.374   part1: 456.374   part2: 0
24, 8: 0 8681.02 8526.93
41, 8, 39: 0 8681.02 82.119 6389.57 8526.93
42, 8, 39: 0 8681.02 175.343 6389.57 8526.93
43, 8, 39: 0 8681.02 157.499 6389.57 8526.93
44, 8, 39: 1 8681.02 0 8526.93 8526.93
24, 9: 0 923.572 621.29
41, 9, 40: 0 923.572 82.119 503.527 621.29
42, 9, 40: 0 923.572 175.343 503.527 621.29
43, 9, 40: 0 923.572 157.499 503.527 621.29
44, 9, 40: 1 923.572 0 621.29 621.29
Customer 25 - Obj: 97.6809   part1: 149.121   part2: 51.4403
25, 4: 0 3368.35 3219.23
41, 4, 41: 0 3368.35 27.738 2213.19 3219.23
42, 4, 41: 0 3368.35 67.6418 2213.19 3219.23
43, 4, 41: 0 3368.35 62.0357 2213.19 3219.23
44, 4, 41: 1 3368.35 51.4403 3219.23 3219.23
Customer 26 - Obj: -192.288   part1: 11.654   part2: 203.942
26, 5: 0 6676.97 6665.31
41, 5, 42: 0 6676.97 77.5022 6249.21 6665.31
42, 5, 42: 0 6676.97 290.373 6249.21 6665.31
43, 5, 42: 0 6676.97 219.25 6249.21 6665.31
44, 5, 42: 1 6676.97 203.942 6665.31 6665.31
Customer 27 - Obj: 228.913   part1: 491.844   part2: 262.931
27, 3: 0 1199.52 981.225
41, 3, 43: 0 1199.52 135.465 770.044 981.225
42, 3, 43: 0 1199.52 257.593 770.044 981.225
43, 3, 43: 0 1199.52 121.969 770.044 981.225
44, 3, 43: 1 1199.52 262.931 981.225 981.225
27, 4: 0 3331.6 3219.23
41, 4, 44: 0 3331.6 135.465 2213.19 3219.23
42, 4, 44: 0 3331.6 257.593 2213.19 3219.23
43, 4, 44: 0 3331.6 121.969 2213.19 3219.23
44, 4, 44: 1 3331.6 262.931 3219.23 3219.23
27, 2: 0 3301.29 3140.11
41, 2, 45: 0 3301.29 135.465 2815.86 3140.11
42, 2, 45: 0 3301.29 257.593 3140.11 3140.11
43, 2, 45: 0 3301.29 121.969 2815.86 3140.11
44, 2, 45: 1 3301.29 262.931 3140.11 3140.11
Customer 28 - Obj: -244.712   part1: 240.857   part2: 485.569
28, 9: 0 829.773 621.29
41, 9, 46: 0 829.773 381.172 503.527 621.29
42, 9, 46: 0 829.773 418.018 503.527 621.29
43, 9, 46: 0 829.773 84.0452 503.527 621.29
44, 9, 46: 1 829.773 485.569 621.29 621.29
28, 0: 0 6212.72 6180.34
41, 0, 47: 0 6212.72 381.172 4753.11 6180.34
42, 0, 47: 0 6212.72 418.018 4753.11 6180.34
43, 0, 47: 0 6212.72 84.0452 4753.11 6180.34
44, 0, 47: 1 6212.72 485.569 6180.34 6180.34
Customer 29 - Obj: 30.0389   part1: 142.233   part2: 112.194
29, 8: 0 8653.25 8526.93
41, 8, 48: 0 8653.25 103.371 6389.57 8526.93
42, 8, 48: 0 8653.25 96.6057 6389.57 8526.93
43, 8, 48: 0 8653.25 16.8315 6389.57 8526.93
44, 8, 48: 1 8653.25 112.194 8526.93 8526.93
29, 6: 0 2195.71 2179.8
41, 6, 49: 0 2195.71 103.371 1727.66 2179.8
42, 6, 49: 0 2195.71 96.6057 1727.66 2179.8
43, 6, 49: 0 2195.71 16.8315 1727.66 2179.8
44, 6, 49: 1 2195.71 112.194 2179.8 2179.8
Customer 30 - Obj: -119.746   part1: 132.587   part2: 252.333
30, 7: 0 4576.66 4508.14
41, 7, 50: 0 4576.66 166.918 3278.16 4508.14
42, 7, 50: 0 4576.66 180.766 3278.16 4508.14
43, 7, 50: 0 4576.66 12.979 3278.16 4508.14
44, 7, 50: 1 4576.66 252.333 4508.14 4508.14
30, 1: 0 8267.99 8203.92
41, 1, 51: 0 8267.99 166.918 5561.73 8203.92
42, 1, 51: 0 8267.99 180.766 5561.73 8203.92
43, 1, 51: 0 8267.99 12.979 5561.73 8203.92
44, 1, 51: 1 8267.99 252.333 8203.92 8203.92
Customer 31 - Obj: 231.572   part1: 394.012   part2: 162.439
31, 3: 0 1072.82 981.225
41, 3, 52: 0 1072.82 111.364 770.044 981.225
42, 3, 52: 0 1072.82 119.645 770.044 981.225
43, 3, 52: 0 1072.82 15.3399 770.044 981.225
44, 3, 52: 1 1072.82 162.439 981.225 981.225
31, 0: 0 6310.6 6180.34
41, 0, 53: 0 6310.6 111.364 4753.11 6180.34
42, 0, 53: 0 6310.6 119.645 4753.11 6180.34
43, 0, 53: 0 6310.6 15.3399 4753.11 6180.34
44, 0, 53: 1 6310.6 162.439 6180.34 6180.34
31, 6: 0 2351.96 2179.8
41, 6, 54: 0 2351.96 111.364 1727.66 2179.8
42, 6, 54: 0 2351.96 119.645 1727.66 2179.8
43, 6, 54: 0 2351.96 15.3399 1727.66 2179.8
44, 6, 54: 1 2351.96 162.439 2179.8 2179.8
Customer 32 - Obj: -315.11   part1: 19.6533   part2: 334.763
32, 1: 0 8223.57 8203.92
41, 1, 55: 0 8223.57 221.214 5561.73 8203.92
42, 1, 55: 0 8223.57 239.623 5561.73 8203.92
43, 1, 55: 0 8223.57 6.77686 5561.73 8203.92
44, 1, 55: 1 8223.57 334.763 8203.92 8203.92
Customer 33 - Obj: 58.5635   part1: 177.268   part2: 118.704
33, 2: 0 3145.82 3140.11
41, 2, 56: 0 3145.82 79.1732 2815.86 3140.11
42, 2, 56: 0 3145.82 85.583 2815.86 3140.11
43, 2, 56: 0 3145.82 14.0266 2815.86 3140.11
44, 2, 56: 1 3145.82 118.704 3140.11 3140.11
33, 4: 0 3297.2 3219.23
41, 4, 57: 0 3297.2 79.1732 2213.19 3219.23
42, 4, 57: 0 3297.2 85.583 2213.19 3219.23
43, 4, 57: 0 3297.2 14.0266 2213.19 3219.23
44, 4, 57: 1 3297.2 118.704 3219.23 3219.23
33, 9: 0 714.881 621.29
41, 9, 58: 0 714.881 79.1732 503.527 621.29
42, 9, 58: 0 714.881 85.583 503.527 621.29
43, 9, 58: 0 714.881 14.0266 503.527 621.29
44, 9, 58: 1 714.881 118.704 621.29 621.29
Customer 34 - Obj: -503.084   part1: 20.5794   part2: 523.663
34, 5: 0 6685.89 6665.31
41, 5, 59: 0 6685.89 383.608 6249.21 6665.31
42, 5, 59: 0 6685.89 406.315 6249.21 6665.31
43, 5, 59: 0 6685.89 129.11 6249.21 6665.31
44, 5, 59: 1 6685.89 523.663 6665.31 6665.31
Customer 35 - Obj: -393.802   part1: 121.845   part2: 515.646
35, 8: 0 8634.56 8526.93
41, 8, 60: 0 8634.56 382.731 6389.57 8526.93
42, 8, 60: 0 8634.56 404.471 6389.57 8526.93
43, 8, 60: 0 8634.56 141.4 6389.57 8526.93
44, 8, 60: 1 8634.56 515.646 8526.93 8526.93
35, 9: 0 635.501 621.29
41, 9, 61: 0 635.501 382.731 503.527 621.29
42, 9, 61: 0 635.501 404.471 503.527 621.29
43, 9, 61: 0 635.501 141.4 503.527 621.29
44, 9, 61: 1 635.501 515.646 621.29 621.29
Customer 36 - Obj: 196.246   part1: 365.481   part2: 169.235
36, 7: 0 4526.71 4508.14
41, 7, 62: 0 4526.71 72.1097 3278.16 4508.14
42, 7, 62: 0 4526.71 76.9698 3278.16 4508.14
43, 7, 62: 0 4526.71 34.4563 3278.16 4508.14
44, 7, 62: 1 4526.71 92.2655 4508.14 4508.14
36, 5: 0 6817.75 6665.31
41, 5, 63: 0 6817.75 72.1097 6249.21 6665.31
42, 5, 63: 0 6817.75 76.9698 6249.21 6665.31
43, 5, 63: 0 6817.75 34.4563 6249.21 6665.31
44, 5, 63: 1 6817.75 92.2655 6665.31 6665.31
36, 0: 0 6374.82 6180.34
41, 0, 64: 0 6374.82 72.1097 4753.11 6180.34
42, 0, 64: 0 6374.82 76.9698 4753.11 6180.34
43, 0, 64: 0 6374.82 34.4563 4753.11 6180.34
44, 0, 64: 1 6374.82 92.2655 6180.34 6180.34
Customer 37 - Obj: 207.961   part1: 220.765   part2: 12.8049
37, 1: 0 8283.89 8203.92
41, 1, 65: 0 8283.89 10.0835 5561.73 8203.92
42, 1, 65: 0 8283.89 10.7397 5561.73 8203.92
43, 1, 65: 0 8283.89 4.99966 5561.73 8203.92
44, 1, 65: 1 8283.89 12.8049 8203.92 8203.92
37, 7: 0 4582.07 4508.14
41, 7, 66: 0 4582.07 10.0835 3278.16 4508.14
42, 7, 66: 0 4582.07 10.7397 3278.16 4508.14
43, 7, 66: 0 4582.07 4.99966 3278.16 4508.14
44, 7, 66: 1 4582.07 12.8049 4508.14 4508.14
37, 4: 0 3286.09 3219.23
41, 4, 67: 0 3286.09 10.0835 2213.19 3219.23
42, 4, 67: 0 3286.09 10.7397 2213.19 3219.23
43, 4, 67: 0 3286.09 4.99966 2213.19 3219.23
44, 4, 67: 1 3286.09 12.8049 3219.23 3219.23
Customer 38 - Obj: 364.526   part1: 471.211   part2: 106.685
38, 6: 0 2389.11 2179.8
41, 6, 68: 0 2389.11 82.4374 1727.66 2179.8
42, 6, 68: 0 2389.11 84.3799 1727.66 2179.8
43, 6, 68: 0 2389.11 36.3876 1727.66 2179.8
44, 6, 68: 1 2389.11 106.685 2179.8 2179.8
38, 3: 0 1221.12 981.225
41, 3, 69: 0 1221.12 82.4374 770.044 981.225
42, 3, 69: 0 1221.12 84.3799 770.044 981.225
43, 3, 69: 0 1221.12 36.3876 770.044 981.225
44, 3, 69: 1 1221.12 106.685 981.225 981.225
38, 8: 0 8548.94 8526.93
41, 8, 70: 0 8548.94 82.4374 6389.57 8526.93
42, 8, 70: 0 8548.94 84.3799 6389.57 8526.93
43, 8, 70: 0 8548.94 36.3876 6389.57 8526.93
44, 8, 70: 1 8548.94 106.685 8526.93 8526.93
Customer 39 - Obj: 100.033   part1: 314.435   part2: 214.401
39, 0: 0 6367 6180.34
41, 0, 71: 0 6367 168.12 4753.11 6180.34
42, 0, 71: 0 6367 171.88 4753.11 6180.34
43, 0, 71: 0 6367 80.2771 4753.11 6180.34
44, 0, 71: 1 6367 214.401 6180.34 6180.34
39, 6: 0 2198.22 2179.8
41, 6, 72: 0 2198.22 168.12 1727.66 2179.8
42, 6, 72: 0 2198.22 171.88 1727.66 2179.8
43, 6, 72: 0 2198.22 80.2771 1727.66 2179.8
44, 6, 72: 1 2198.22 214.401 2179.8 2179.8
39, 8: 0 8636.28 8526.93
41, 8, 73: 0 8636.28 168.12 6389.57 8526.93
42, 8, 73: 0 8636.28 171.88 6389.57 8526.93
43, 8, 73: 0 8636.28 80.2771 6389.57 8526.93
44, 8, 73: 1 8636.28 214.401 8526.93 8526.93
Customer 40 - Obj: -1070.94   part1: 42.0667   part2: 1113.01
40, 3: 0 1023.29 981.225
41, 3, 74: 0 1023.29 482.874 770.044 981.225
42, 3, 74: 0 1023.29 499.101 770.044 981.225
43, 3, 74: 0 1023.29 239.746 770.044 981.225
44, 3, 74: 1 1023.29 613.91 981.225 981.225
Routing:
[1252.7499999999927, 1229.1599999999999, 1207.64, 1204.4600000000003]
[[2, 2, 44], [5, 3, 44], [11, 7, 44], [12, 8], [21, 15, 44], [22, 15, 44], [26, 16, 44], [30, 20, 44], [38, 23, 44], [39, 24, 44], [42, 26, 44], [45, 27, 44], [48, 29, 44], [60, 35, 44], [62, 36, 44], [63, 36, 44], [68, 38, 44], [74, 40, 44]]
[[1, 1, 44], [3, 2, 44], [4, 3, 44], [6, 3, 44], [9, 6], [14, 10, 44], [16, 12, 44], [17, 12, 44], [19, 14, 44], [24, 16, 44], [29, 19, 44], [33, 21, 44], [34, 22, 44], [40, 24, 44], [47, 28, 44], [50, 30, 44], [54, 31, 44], [69, 38, 44], [72, 39, 44]]
[[7, 4], [10, 7, 44], [23, 15, 44], [28, 18, 44], [31, 21, 44], [32, 21, 44], [35, 22, 44], [36, 23, 44], [44, 27, 44], [46, 28, 44], [51, 30, 44], [52, 31, 44], [53, 31, 44], [55, 32, 44], [57, 33, 44], [65, 37, 44], [66, 37, 44], [71, 39, 44], [73, 39, 44]]
[[0, 1, 44], [8, 5], [13, 9, 44], [15, 11, 44], [18, 13, 44], [20, 14, 44], [25, 16, 44], [27, 17, 44], [37, 23, 44], [41, 25, 44], [43, 27, 44], [49, 29, 44], [56, 33, 44], [58, 33, 44], [59, 34, 44], [61, 35, 44], [64, 36, 44], [67, 37, 44], [70, 38, 44]]
4, 0, 2
5, 0, 3
6, 0, 1
8, 0, 0
44, 0, 0
44, 8, 0
44, 0, 1
44, 6, 1
44, 0, 2
44, 4, 2
44, 0, 3
44, 5, 3
Routing cost: 4894.01
[329042.13745937304, 4894.009999999993, 59.25964570045471, 2.8355030976191286e-05, 1, 1.3642420526593924e-12, 0.9466666666666667, 0.9, 0.9]
